(declare-fun temp300_2 () (_ BitVec 64))
(declare-fun temp300_1 () (_ BitVec 64))
(declare-fun temp300_4 () (_ BitVec 64))
(declare-fun temp300_3 () (_ BitVec 64))
(declare-fun temp300_6 () (_ BitVec 64))
(declare-fun temp300_5 () (_ BitVec 64))
(declare-fun temp300_7 () (_ BitVec 64))
(declare-fun var198564 () (_ BitVec 64))
(declare-fun var264647 () (_ BitVec 64))
(declare-fun temp300_8 () (_ BitVec 64))
(declare-fun var198628 () (_ BitVec 64))
(declare-fun temp300_9 () (_ BitVec 64))
(declare-fun var198629 () (_ BitVec 64))
(declare-fun temp300_10 () (_ BitVec 64))
(declare-fun var198549 () (_ BitVec 64))
(declare-fun temp300_12 () (_ BitVec 64))
(declare-fun var198631 () (_ BitVec 64))
(declare-fun temp300_13 () (_ BitVec 64))
(declare-fun var198633 () (_ BitVec 64))
(declare-fun temp300_14 () (_ BitVec 64))
(declare-fun temp300_15 () (_ BitVec 64))
(declare-fun var198679 () (_ BitVec 64))
(declare-fun var198701 () (_ BitVec 64))
(declare-fun var334210 () (_ BitVec 64))
(declare-fun var398470 () (_ BitVec 64))
(declare-fun var398469 () (_ BitVec 64))
(declare-fun var334229 () (_ BitVec 64))
(declare-fun temp300_16 () (_ BitVec 64))
(declare-fun var464006 () (_ BitVec 64))
(declare-fun var464005 () (_ BitVec 64))
(declare-fun var334233 () (_ BitVec 64))
(declare-fun var660614 () (_ BitVec 64))
(declare-fun var660613 () (_ BitVec 64))
(declare-fun var334245 () (_ BitVec 64))
(declare-fun var791699 () (_ BitVec 64))
(declare-fun temp300_17 () (_ BitVec 64))
(declare-fun var198680 () (_ BitVec 64))
(declare-fun temp300_19 () (_ BitVec 64))
(declare-fun temp300_18 () (_ BitVec 64))
(declare-fun temp300_20 () (_ BitVec 64))
(declare-fun var1838119 () (_ BitVec 64))
(declare-fun temp300_21 () (_ BitVec 64))
(declare-fun var67098 () (_ BitVec 64))
(declare-fun var1903047 () (_ BitVec 64))
(assert (= temp300_2 #x0000000000000000))
(assert (= temp300_1 temp300_2))
(assert (= temp300_4 #x0000000000000000))
(assert (= temp300_3 temp300_4))
(assert (= temp300_6 #x0000000000000000))
(assert (= temp300_5 temp300_6))
(assert (= temp300_7 #x0000000000000000))
(assert (= var198564 temp300_7))
(assert (= var264647 var198564))
(assert (= temp300_8 #x0000000000000000))
(assert (= var198628 temp300_8))
(assert (= temp300_9 #x0000000000000000))
(assert (= var198629
   (ite (= var198628 temp300_9) #x0000000000000001 #x0000000000000000)))
(assert (= temp300_10 #x0000000000000001))
(assert (= var198549 (bvadd var198564 temp300_10)))
(assert (= temp300_12 #x0000000000000008))
(assert (= var198631 temp300_12))
(assert (= temp300_13 #x0000000000000008))
(assert (= var198633
   (ite (= var198631 temp300_13) #x0000000000000001 #x0000000000000000)))
(assert (= temp300_14 #x0000000000000001))
(assert (= var198633 temp300_14))
(assert (= temp300_15 #x0000000000000000))
(assert (= var198679 temp300_15))
(assert (= var198701 var198679))
(assert (= var334210 var198701))
(assert (= var398470 var334210))
(assert (= var398469 var398470))
(assert (= var334229 var398469))
(assert (= temp300_16 #x0000000000000000))
(assert (= var464006 temp300_16))
(assert (= var464005 var464006))
(assert (= var334233 var464005))
(assert (= var660614 var334210))
(assert (= var660613 var660614))
(assert (= var334245 var660613))
(assert (= var791699 var334245))
(assert (= temp300_17 #x0000000000000001))
(assert (= var198680 (bvadd var198679 temp300_17)))
(assert (= temp300_19 #x0000000055555555))
(assert (= temp300_18 temp300_19))
(assert (= temp300_20 #x0000000000000001))
(assert (= var1838119 temp300_20))
(assert (= temp300_21 #x0000000000000000))
(assert (= var67098 temp300_21))
(assert (= var1903047 var67098))




